NAME iteration_7
ROWS
 N  OBJ
 L  R0      
 L  R1      
 L  R2      
 L  R3      
 L  R4      
 L  R5      
 L  R6      
 L  R7      
 L  R8      
 L  R9      
 L  R10     
 L  R11     
 L  R12     
 L  R13     
 L  R14     
 L  R15     
 L  R16     
 L  R17     
 L  R18     
 L  R19     
 G  z0      
 G  z1      
 G  z2      
 G  z3      
 G  z4      
 G  z5      
 L  cc      
 E  R27     
 E  R28     
COLUMNS
    vars[0]   R0        -1
    vars[0]   R1        1
    vars[0]   R2        -1
    vars[0]   R3        1
    vars[0]   R16       -1
    vars[0]   R17       1
    vars[0]   R27       1
    vars[1]   R0        1
    vars[1]   R1        -1
    vars[1]   R10       -1
    vars[1]   R11       1
    vars[1]   z0        1.6666666666666666e-01
    vars[1]   z1        -1.6666666666666666e-01
    vars[1]   z3        -1.6666666666666666e-01
    vars[1]   z4        1.6666666666666666e-01
    vars[2]   R2        1
    vars[2]   R3        -1
    vars[2]   R4        -1
    vars[2]   R5        1
    vars[2]   R8        -1
    vars[2]   R9        1
    vars[2]   R14       -1
    vars[2]   R15       1
    vars[3]   R4        1
    vars[3]   R5        -1
    vars[3]   R6        -1
    vars[3]   R7        1
    vars[4]   R6        1
    vars[4]   R7        -1
    vars[4]   R8        1
    vars[4]   R9        -1
    vars[4]   R12       -1
    vars[4]   R13       1
    vars[5]   R12       1
    vars[5]   R13       -1
    vars[5]   R14       1
    vars[5]   R15       -1
    vars[5]   R18       -1
    vars[5]   R19       1
    vars[6]   R10       1
    vars[6]   R11       -1
    vars[6]   z0        -1.6666666666666666e-01
    vars[6]   z1        1.6666666666666666e-01
    vars[6]   z2        1.6666666666666666e-01
    vars[6]   z3        1.6666666666666666e-01
    vars[6]   z4        -1.6666666666666666e-01
    vars[6]   z5        -1.6666666666666666e-01
    vars[7]   R16       1
    vars[7]   R17       -1
    vars[7]   R18       1
    vars[7]   R19       -1
    vars[7]   z2        -1.6666666666666666e-01
    vars[7]   z5        1.6666666666666666e-01
    vars[8]   OBJ       1
    vars[8]   R17       -1
    vars[9]   OBJ       1
    vars[9]   R16       -1
    lambda[0]  z0        -3
    lambda[0]  z1        -3
    lambda[0]  z2        -3
    lambda[0]  z3        -3
    lambda[0]  z4        -3
    lambda[0]  z5        -3
    lambda[0]  cc        5.4068941709519485e-03
    lambda[0]  R28       1
    lambda[1]  z0        -1.6999999999999988e+00
    lambda[1]  z1        -3
    lambda[1]  z2        -3
    lambda[1]  z3        -3
    lambda[1]  z4        -3
    lambda[1]  z5        -3
    lambda[1]  cc        0.0497063382090132
    lambda[1]  R28       1
    lambda[2]  z0        -3
    lambda[2]  z1        -1.6999999999999988e+00
    lambda[2]  z2        -3
    lambda[2]  z3        -3
    lambda[2]  z4        -3
    lambda[2]  z5        -3
    lambda[2]  cc        0.0497063382090132
    lambda[2]  R28       1
    lambda[3]  z0        -3
    lambda[3]  z1        -3
    lambda[3]  z2        -1.6999999999999988e+00
    lambda[3]  z3        -3
    lambda[3]  z4        -3
    lambda[3]  z5        -3
    lambda[3]  cc        0.0497063382090132
    lambda[3]  R28       1
    lambda[4]  z0        -3
    lambda[4]  z1        -3
    lambda[4]  z2        -3
    lambda[4]  z3        -1.6999999999999988e+00
    lambda[4]  z4        -3
    lambda[4]  z5        -3
    lambda[4]  cc        0.0497063382090132
    lambda[4]  R28       1
    lambda[5]  z0        -3
    lambda[5]  z1        -3
    lambda[5]  z2        -3
    lambda[5]  z3        -3
    lambda[5]  z4        -1.6999999999999988e+00
    lambda[5]  z5        -3
    lambda[5]  cc        0.0497063382090132
    lambda[5]  R28       1
    lambda[6]  z0        -3
    lambda[6]  z1        -3
    lambda[6]  z2        -3
    lambda[6]  z3        -3
    lambda[6]  z4        -3
    lambda[6]  z5        -1.6999999999999988e+00
    lambda[6]  cc        0.0497063382090132
    lambda[6]  R28       1
RHS
    RHS1      R0        10000
    RHS1      R1        -0.001
    RHS1      R2        10000
    RHS1      R3        -0.001
    RHS1      R4        30
    RHS1      R5        -30
    RHS1      R6        10000
    RHS1      R7        -0.001
    RHS1      R8        10000
    RHS1      R9        -0.001
    RHS1      R10       10000
    RHS1      R11       -0.001
    RHS1      R12       10
    RHS1      R13       -10
    RHS1      R14       10000
    RHS1      R15       -0.001
    RHS1      R16       60.001
    RHS1      R18       10000
    RHS1      R19       -0.001
    RHS1      z0        -1.6716666666666665e+03
    RHS1      z1        -4.9998333333333331e+00
    RHS1      z2        -1.6716666666666665e+03
    RHS1      z3        5.0001666666666669e+00
    RHS1      z4        -1.6616666666666665e+03
    RHS1      z5        5.0001666666666669e+00
    RHS1      cc        5.1293294387550578e-02
    RHS1      R28       1
BOUNDS
ENDATA
